%%%mzn-stat: initTime=0.003807622
%%%mzn-stat: objective=409
%%%mzn-stat: nodes=2452
%%%mzn-stat: restarts=0
%%%mzn-stat: peakDepth=102
%%%mzn-stat: solveTime=0.121560093
%%%mzn-stat: variables=352
%%%mzn-stat: propagators=237
%%%mzn-stat: failures=1392
%%%mzn-stat: propagations=105213
%%%mzn-stat: nogoods=1392
%%%mzn-stat: AverageConflictSize=7.866379310344827
%%%mzn-stat: NumUnitNogoodsLearned=408
%%%mzn-stat: AverageLearnedNogoodLength=13.424568965517242
%%%mzn-stat: AverageBacktrackAmount=0
%%%mzn-stat: AverageLbd=4.217672413793103
%%%mzn-stat-end
maxleg = 409;
succ = array1d(1..20,[17, 15, 14, 11, 20, 12, 8, 10, 4, 19, 3, 5, 7, 16, 18, 2, 6, 1, 9, 13]);
% time elapsed: 1.54 s
----------
==========
% time elapsed: 1.54 s
%%%mzn-stat: initTime=0.003807622
%%%mzn-stat: objective=409
%%%mzn-stat: nodes=2452
%%%mzn-stat: restarts=0
%%%mzn-stat: peakDepth=102
%%%mzn-stat: solveTime=0.121564427
%%%mzn-stat: variables=352
%%%mzn-stat: propagators=237
%%%mzn-stat: failures=1392
%%%mzn-stat: propagations=105213
%%%mzn-stat: nogoods=1392
%%%mzn-stat: AverageConflictSize=7.866379310344827
%%%mzn-stat: NumUnitNogoodsLearned=408
%%%mzn-stat: AverageLearnedNogoodLength=13.424568965517242
%%%mzn-stat: AverageBacktrackAmount=0
%%%mzn-stat: AverageLbd=4.217672413793103
%%%mzn-stat-end
